200
[41,42,43,44,45,46,47,48,49,50,51,52,54,56,57,58,59,60,61,62,63,64,65,66,67,68,69,70,71,72,73,74,75,76,77,78,79,80,81,83,85,86,87,88,89,90,91,92,93,94,95,96,97,99,100,101,102,103,104,105,106,107,108,109,110,111,112,113,114,115,117,118,119,120,121,122,123,124,125,126,127,128,129,130,131,132,134,135,136,137,138,139,140,141,142,143,144,145,146,147,148,149,150,151,152,154,155,156,157,158,159,160]
[4,4,2,2,1,1,2,3,1,2,3,4,3,4,2,1,1,4,2,4,1,2,3,3,2,2,7,2,4,3,2,4,1,1,1,3,4,1,1,1,2,4,1,5,4,1,5,3,1,1,2,1,6,3,1,5,3,7,1,1,1,1,3,4,2,1,4,1,2,1,2,4,2,2,3,2,4,3,4,3,1,3,3,3,2,5,2,1,1,5,3,2,4,4,5,1,2,2,5,4,3,2,4,2,4,4,2,4,4,3,3,3]
